
Gurobi 11.0.1 (win64) logging started Sat Mar 16 01:56:09 2024

Set parameter LogFile to value "res/logfile/rail01log.txt"
Gurobi Optimizer version 11.0.1 build v11.0.1rc0 (win64 - Windows 11.0 (22621.2))

CPU model: AMD Ryzen Threadripper PRO 5975WX 32-Cores, instruction set [SSE2|AVX|AVX2]
Thread count: 32 physical cores, 64 logical processors, using up to 10 threads

Optimize a model with 83472 rows, 117527 columns and 510129 nonzeros
Model fingerprint: 0x3fdb2b48
Variable types: 0 continuous, 117527 integer (117527 binary)
Coefficient statistics:
  Matrix range     [1e+00, 2e+02]
  Objective range  [1e-07, 1e+01]
  Bounds range     [1e+00, 1e+00]
  RHS range        [1e+00, 1e+00]
Presolve removed 60940 rows and 35640 columns
Presolve time: 0.77s
Presolved: 22532 rows, 81887 columns, 244816 nonzeros
Crushed 141 out of 149 user cuts to presolved model
Variable types: 0 continuous, 81887 integer (81887 binary)
Deterministic concurrent LP optimizer: primal and dual simplex
Showing primal log only...


Root simplex log...

Iteration    Objective       Primal Inf.    Dual Inf.      Time
   19834   -4.4712757e+00   6.972625e+00   2.098887e+10      5s
   30494   -4.5966114e+00   6.878814e+00   1.687299e+10     10s
Concurrent spin time: 0.36s

Solved with dual simplex

Root simplex log...

Iteration    Objective       Primal Inf.    Dual Inf.      Time
   48400   -9.0767086e+01   0.000000e+00   0.000000e+00     13s

Root relaxation: objective -9.076709e+01, 48400 iterations, 12.11 seconds (19.06 work units)
Total elapsed time = 15.11s (DegenMoves)

    Nodes    |    Current Node    |     Objective Bounds      |     Work
 Expl Unexpl |  Obj  Depth IntInf | Incumbent    BestBd   Gap | It/Node Time

     0     0  -90.76709    0 5531          -  -90.76709      -     -   17s
     0     0  -87.37515    0 6600          -  -87.37515      -     -   34s
     0     0  -87.13631    0 6034          -  -87.13631      -     -   37s
     0     0  -87.13631    0 6033          -  -87.13631      -     -   37s
     0     0  -77.60867    0 6388          -  -77.60867      -     -   52s
     0     0  -77.60867    0 6388          -  -77.60867      -     -   52s
     0     0  -76.21256    0 6259          -  -76.21256      -     -   54s
     0     0  -76.21256    0 6260          -  -76.21256      -     -   54s
     0     0  -75.52882    0 5583          -  -75.52882      -     -   64s
     0     0  -75.52882    0 5584          -  -75.52882      -     -   64s
     0     0  -75.32032    0 5276          -  -75.32032      -     -   66s
     0     0  -72.38912    0 5568          -  -72.38912      -     -   72s
     0     0  -72.38912    0 5568          -  -72.38912      -     -   72s
     0     0  -72.38912    0 5568          -  -72.38912      -     -   72s
     0     0  -72.38912    0 5921          -  -72.38912      -     -   72s
     0     0  -72.38912    0 5671          -  -72.38912      -     -   73s
     0     0  -71.78068    0 6079          -  -71.78068      -     -   80s
     0     0  -71.78068    0 6103          -  -71.78068      -     -   81s
     0     0  -71.78068    0 6109          -  -71.78068      -     -   81s
H    0     0                     -59.5416434  -71.78068  20.6%     -   82s
H    0     0                     -59.5424767  -71.78068  20.6%     -   82s
H    0     0                     -59.5466429  -71.78068  20.5%     -   87s
     0     0  -71.78068    0 6500  -59.54664  -71.78068  20.5%     -   88s
     0     0  -71.78068    0 6500  -59.54664  -71.78068  20.5%     -   88s
     0     0  -71.78068    0 6508  -59.54664  -71.78068  20.5%     -   89s
     0     0  -71.78068    0 6508  -59.54664  -71.78068  20.5%     -   89s
     0     0  -71.78068    0 6508  -59.54664  -71.78068  20.5%     -   89s
     0     0  -71.78068    0 6508  -59.54664  -71.78068  20.5%     -   89s
     0     0  -71.78068    0 6577  -59.54664  -71.78068  20.5%     -   90s
H    0     0                     -70.5057989  -71.78068  1.81%     -   97s
H    0     0                     -70.5057999  -71.78068  1.81%     -   97s
     0     0  -71.77615    0 5265  -70.50580  -71.77615  1.80%     -   98s
     0     0  -71.77615    0 5269  -70.50580  -71.77615  1.80%     -   98s
     0     0  -71.77615    0 5314  -70.50580  -71.77615  1.80%     -   98s
     0     0  -71.77615    0 5199  -70.50580  -71.77615  1.80%     -   99s
     0     0  -71.77615    0 5207  -70.50580  -71.77615  1.80%     -   99s
     0     0  -71.77615    0 6250  -70.50580  -71.77615  1.80%     -  105s
     0     0  -71.77615    0 6238  -70.50580  -71.77615  1.80%     -  105s
     0     0  -71.77615    0 6157  -70.50580  -71.77615  1.80%     -  105s
     0     0  -71.77615    0 6226  -70.50580  -71.77615  1.80%     -  105s
     0     0  -71.77615    0 6213  -70.50580  -71.77615  1.80%     -  106s
     0     0  -71.77615    0 6214  -70.50580  -71.77615  1.80%     -  106s
     0     0  -71.77615    0 6241  -70.50580  -71.77615  1.80%     -  106s
     0     0  -71.77615    0 6209  -70.50580  -71.77615  1.80%     -  106s
     0     0  -71.77615    0 6215  -70.50580  -71.77615  1.80%     -  106s
     0     0  -71.77615    0 6216  -70.50580  -71.77615  1.80%     -  106s
     0     0  -71.77615    0 6360  -70.50580  -71.77615  1.80%     -  107s
     0     0  -71.77615    0 6361  -70.50580  -71.77615  1.80%     -  107s
     0     0  -71.77615    0 6281  -70.50580  -71.77615  1.80%     -  107s
     0     0  -71.77615    0 6289  -70.50580  -71.77615  1.80%     -  107s
     0     0  -71.77615    0 6239  -70.50580  -71.77615  1.80%     -  112s
     0     0  -71.77615    0 6352  -70.50580  -71.77615  1.80%     -  112s
     0     0  -71.77615    0 6352  -70.50580  -71.77615  1.80%     -  112s
     0     0  -71.77615    0 6170  -70.50580  -71.77615  1.80%     -  113s
     0     0  -71.77615    0 6058  -70.50580  -71.77615  1.80%     -  116s
     0     0  -71.77615    0 5917  -70.50580  -71.77615  1.80%     -  117s
     0     0  -71.77615    0 6055  -70.50580  -71.77615  1.80%     -  117s
     0     0  -71.77615    0 5873  -70.50580  -71.77615  1.80%     -  117s
     0     0  -71.77615    0 5922  -70.50580  -71.77615  1.80%     -  117s
     0     0  -71.77615    0 6058  -70.50580  -71.77615  1.80%     -  117s
     0     0  -71.77615    0 5922  -70.50580  -71.77615  1.80%     -  118s
     0     0  -71.77615    0 5912  -70.50580  -71.77615  1.80%     -  118s
     0     0  -71.77615    0 5878  -70.50580  -71.77615  1.80%     -  118s
     0     0  -71.77615    0 5883  -70.50580  -71.77615  1.80%     -  118s
     0     0  -71.77615    0 5897  -70.50580  -71.77615  1.80%     -  119s
     0     0  -71.77615    0 6264  -70.50580  -71.77615  1.80%     -  123s
     0     0  -71.77615    0 6034  -70.50580  -71.77615  1.80%     -  124s
     0     0  -71.77615    0 6150  -70.50580  -71.77615  1.80%     -  124s
     0     0  -71.77615    0 6172  -70.50580  -71.77615  1.80%     -  125s
     0     0  -71.77615    0 6094  -70.50580  -71.77615  1.80%     -  125s
     0     0  -71.77615    0 6375  -70.50580  -71.77615  1.80%     -  127s
     0     0  -71.77615    0 6214  -70.50580  -71.77615  1.80%     -  128s
     0     0  -71.77589    0 6159  -70.50580  -71.77589  1.80%     -  129s
     0     0  -71.77533    0 6280  -70.50580  -71.77533  1.80%     -  129s
     0     0  -71.74879    0 6852  -70.50580  -71.74879  1.76%     -  132s
     0     0  -71.74879    0 4682  -70.50580  -71.74879  1.76%     -  147s
     0     0  -71.74879    0 4494  -70.50580  -71.74879  1.76%     -  150s
     0     0  -71.74879    0 4656  -70.50580  -71.74879  1.76%     -  151s
     0     0  -71.74879    0 4526  -70.50580  -71.74879  1.76%     -  152s
     0     0  -71.47081    0 5278  -70.50580  -71.47081  1.37%     -  160s
     0     0  -70.69513    0 1922  -70.50580  -70.69513  0.27%     -  162s
     0     0  -70.65830    0 2049  -70.50580  -70.65830  0.22%     -  163s
     0     0  -70.60913    0 1841  -70.50580  -70.60913  0.15%     -  164s
     0     0  -70.60663    0 1131  -70.50580  -70.60663  0.14%     -  164s
     0     0  -70.60455    0 1083  -70.50580  -70.60455  0.14%     -  164s
     0     0  -70.60455    0 1083  -70.50580  -70.60455  0.14%     -  164s
     0     0  -70.58559    0 1468  -70.50580  -70.58559  0.11%     -  165s
     0     0  -70.58559    0  315  -70.50580  -70.58559  0.11%     -  168s
     0     0  -70.57538    0  369  -70.50580  -70.57538  0.10%     -  168s
*    0     0               0     -70.5699643  -70.56996  0.00%     -  168s

Explored 1 nodes (285808 simplex iterations) in 168.09 seconds (203.21 work units)
Thread count was 10 (of 64 available processors)

Solution count 6: -70.57 -70.5058 -70.5058 ... -59.5416
No other solutions better than -70.57

Optimal solution found (tolerance 1.00e-04)
Best objective -7.056996430000e+01, best bound -7.056996430000e+01, gap 0.0000%

User-callback calls 3672, time in user-callback 0.00 sec
